6920
0 0 0 0 0 1 0 0 0 1 1 0 0 0 0 1 0 1 1 0 
17 10 9 9 15 18 17 17 17 17 9 18 10 10 15 15 15 17 10 10 5 9 9 9 18 18 9 17 17 17 17 18 15 18 10 10 10 15 15 15 15 17 17 18 9 5 18 18 15 15 17 17 17 17 17 5 17 5 10 5 9 18 9 17 5 17 15 15 15 18 10 18 15 18 18 18 18 18 18 18 
